
Gurobi 11.0.3 (linux64) logging started Sun Nov 24 19:12:16 2024

Set parameter LogFile to value "/home/yihong/Coding/OR_SUC/SUC_results_bigM100000_thread4/case24_ieee_rts_theta0.1_epsilon0.05_gurobi_seed1380000_num_gen100_N_WDR100_load_scaling_factor1_proposed_T8quadra_cost.txt"
Set parameter TimeLimit to value 3600
Gurobi Optimizer version 11.0.3 build v11.0.3rc0 (linux64 - "Ubuntu 20.04.6 LTS")

CPU model: AMD EPYC 7532 32-Core Processor, instruction set [SSE2|AVX|AVX2]
Thread count: 64 physical cores, 128 logical processors, using up to 4 threads

Optimize a model with 18854 rows, 10021 columns and 437434 nonzeros
Model fingerprint: 0x576415df
Model has 800 quadratic constraints
Variable types: 9221 continuous, 800 integer (800 binary)
Coefficient statistics:
  Matrix range     [3e-04, 2e+03]
  QMatrix range    [2e-03, 8e-03]
  QLMatrix range   [2e-01, 6e+01]
  Objective range  [1e+00, 1e+00]
  Bounds range     [1e+00, 1e+00]
  RHS range        [1e+00, 9e+03]
Presolve removed 15672 rows and 4465 columns
Presolve time: 0.11s
Presolved: 3182 rows, 5556 columns, 19354 nonzeros
Presolved model has 800 quadratic constraint(s)
Variable types: 4756 continuous, 800 integer (800 binary)

Root relaxation: objective 1.075679e+04, 2421 iterations, 0.04 seconds (0.05 work units)

    Nodes    |    Current Node    |     Objective Bounds      |     Work
 Expl Unexpl |  Obj  Depth IntInf | Incumbent    BestBd   Gap | It/Node Time

H    0     0                    144652.33746 10756.7894  92.6%     -    0s
*    0     0               0    144652.33746 10756.7894  92.6%     -    0s
     0     0 16066.5275    0  418 144652.337 16066.5275  88.9%     -    0s
     0     0 127307.389    0   15 144652.337 127307.389  12.0%     -    0s
     0     0 127368.827    0   15 144652.337 127368.827  11.9%     -    0s
     0     0 127369.398    0   22 144652.337 127369.398  11.9%     -    0s
     0     0 127369.534    0   22 144652.337 127369.534  11.9%     -    0s
     0     2 127369.534    0   22 144652.337 127369.534  11.9%     -    0s
H  109   130                    127395.49415 127374.294  0.02%  10.8    1s
*  109   130              15    127395.49415 127374.294  0.02%  10.9    1s

Cutting planes:
  Gomory: 22
  Implied bound: 95
  MIR: 28
  Flow cover: 146
  RLT: 136
  Relax-and-lift: 82

Explored 147 nodes (8770 simplex iterations) in 1.32 seconds (1.21 work units)
Thread count was 4 (of 128 available processors)

Solution count 2: 127395 144652 

Optimal solution found (tolerance 1.00e-03)
Warning: max constraint violation (9.7076e-09) exceeds tolerance
Best objective 1.273954941512e+05, best bound 1.273742935468e+05, gap 0.0166%
